\ENCODING=ISO-8859-1
\Problem name: ilog.cplex

Minimize
 obj: 115.374305415399 P315 + 103.512394808308 P316 + 162.879132117632 P317
      + 306.141240449585 P318 + 230.068556903427 P319 + 240.108315151824 P320
      + 240.827689190471 P321 + 241.15664530224 P322 + 244.897083082301 P323
      + 299.008728953079 P324 + 206.06123878894 P325 + 206.297949187246 P326
      + 210.744831215557 P327 + 319.542198012209 P328 + 217.943577609428 P329
      + 221.684015389488 P330 + 222.848300404058 P331 + 223.787683037693 P332
      + 224.35283973166 P333 + 225.292222365295 P334 + 122.754219328879 P335
      + 126.49465710894 P336 + 278.671795341928 P337 + 279.391169380575 P338
      + 279.615288817861 P339 + 282.813965141693 P340 + 180.154117883415 P341
      + 180.873491922062 P342 + 183.532018715275 P343 + 190.768779647485 P344
      + 191.40567218526 P345 + 224.822248254375 P346 + 226.326787581977 P347
      + 227.383903595177 P348 + 277.245645261459 P349 + 277.965019300105 P350
      + 278.189138737391 P351 + 239.05453168467 P352 + 240.111647697869 P353
      + 281.929576517452 P354 + 179.150752240432 P355 + 179.387462638738 P356
      + 180.106836677384 P357 + 182.105868634806 P358 + 185.846306414866 P359
      + 148.013827764489 P360 + 155.250588696699 P361 + 155.887481234473 P362
      + 224.055593009698 P363 + 225.5601323373 P364 + 226.617248350499 P365
      + 258.083461416198 P366 + 259.140577429397 P367 + 259.5880007438 P368
      + 260.645116756999 P369 + 157.989380341019 P370 + 238.287876439993 P371
      + 239.344992453192 P372 + 165.226141273229 P373 + 165.863033811003 P374
      + 162.894103135649 P375 + 163.833485769284 P376 + 164.398642463251 P377
      + 147.953616768062 P378 + 165.338025096886 P379 + 62.8000220604701 P380
      + 151.694054548123 P381 + 70.0367829926805 P382 + 70.673675530455 P383
      + 256.657311335728 P384 + 257.714427348927 P385 + 258.16185066333 P386
      + 259.21896667653 P387 + 156.563230260549 P388 + 160.303668040609 P389
      + 161.46795305518 P390 + 162.407335688814 P391 + 162.972492382782 P392
      + 163.911875016417 P393 + 61.3738719800006 P394 + 213.884327166421 P395
      + 214.603701205068 P396 + 65.114309760061 P397 + 217.186611318566 P398
      + 217.905985357213 P399 + 223.763188474259 P400 + 121.103341215981 P401
      + 224.820304487458 P402 + 121.822715254627 P403 + 135.438326325415 P404
      + 138.06455410657 P405 + 165.77147158694 P406 + 167.276010914543 P407
      + 168.333126927742 P408 + 180.003755017235 P409 + 181.060871030435 P410
      + 116.925758085613 P411 + 119.97449906577 P412 + 120.1259719273 P413
      + 196.7160107724 P414 + 197.834901401155 P415 + 198.220550100002 P416
      + 95.5607028417241 P417 + 199.277666113201 P418 + 96.2800768803705 P419
      + 109.895687951158 P420 + 112.521915732313 P421 + 101.408919112287 P422
      + 102.913458439889 P423 + 340.735587293812 P424 + 245.425165399353 P425
      + 245.425181942304 P426 + 305.487529576592 P427 + 245.546229013264 P428
      + 246.603579984076 P429 + 286.435023956421 P430 + 246.28224344457 P431
      + 287.554460235514 P432 + 287.554476778465 P433 + 186.403263147136 P434
      + 186.403279690087 P435 + 287.939563284023 P436 + 246.890266178976 P437
      + 288.996679297222 P438 + 283.51781528645 P439 + 284.237189325097 P440
      + 191.606038050091 P441 + 290.093106942815 P442 + 195.585006997793 P443
      + 199.410892969657 P444 + 286.339351058125 P445 + 286.339367601075 P446
      + 287.683388223836 P447 + 287.683404766787 P448 + 291.54212596108 P449
      + 292.886163126791 P450 + 328.946751648069 P451 + 328.94676819102 P452
      + 233.639659987956 P453 + 233.639676530907 P454 + 297.25907806545 P455
      + 334.149526551024 P456 + 238.842434890911 P457 + 231.436477173751 P458
      + 286.473054942449 P459 + 226.594074645015 P460 + 226.594091187966 P461
      + 232.43818007328 P462 + 232.438196616231 P463 + 191.2836966619 P464
      + 131.404716364467 P465 + 131.404732907417 P466 + 232.941016501353 P467
      + 233.998132514553 P468 + 228.519268503781 P469 + 232.780514339463 P470
      + 268.723369481176 P471 + 268.723386024127 P472 + 233.295258118497 P473
      + 173.416277821063 P474 + 173.416294364014 P475 + 229.238642542428 P476
      + 227.938111810726 P477 + 227.938128353677 P478 + 132.748753530178 P479
      + 132.748770073129 P480 + 234.285053667065 P481 + 234.799797446099 P482
      + 195.024134441961 P483 + 174.920817148665 P484 + 174.920833691616 P485
      + 229.863305669493 P486 + 231.79684954797 P487 + 230.582679708139 P488
      + 136.607491267422 P489 + 272.03536928798 P490 + 272.754743326626 P491
      + 246.647289810477 P492 + 273.926144384131 P493 + 178.619052724018 P494
      + 233.140886713681 P495 + 137.951528433133 P496 + 180.12359205162 P497
      + 234.77322362064 P498 + 236.199373701109 P499 + 174.894243323206 P500
      + 174.894259866157 P501 + 140.265123675617 P502 + 141.691273756087 P503
      + 80.3861433781835 P504 + 80.3861599211343 P505 + 277.487659473292 P506
      + 182.97955952827 P507 + 177.500695517498 P508 + 178.220069556144 P509
      + 144.412346186988 P510 + 180.097018226161 P511 + 85.5889182811385 P512
      + 145.756383352699 P513 + 187.928446971187 P514 + 187.901873145727 P515
      + 93.3937732007048 P516 + 270.567708790676 P517 + 270.567725333627 P518
      + 270.571039025023 P519 + 271.628389995834 P520 + 226.550777136533 P521
      + 275.488402090066 P522 + 215.547101526738 P523 + 114.39590443836 P524
      + 270.762952332943 P525 + 210.821651769615 P526 + 175.394321014887 P527
      + 115.453020451559 P528 + 256.46128718551 P529 + 311.677918599666 P530
      + 251.736618036338 P531 + 311.677935142617 P532 + 251.736634579289 P533
      + 216.308506673659 P534 + 217.734656754128 P535 + 257.580723464603 P536
      + 257.580740007554 P537 + 156.429526376225 P538 + 156.429542919176 P539
      + 257.965826513112 P540 + 259.022942526311 P541 + 253.54407851554 P542
      + 254.263452554186 P543 + 220.048944453719 P544 + 256.939392939293 P545
      + 161.63230127918 P546 + 264.744247858859 P547 + 169.437156198746 P548
      + 289.66498296977 P549 + 290.722333940582 P550 + 291.03467438021 P551
      + 291.034690923161 P552 + 195.249230725268 P553 + 235.402011237119 P554
      + 265.280075109734 P555 + 265.280091652685 P556 + 290.422618501057 P557
      + 290.422635044008 P558 + 195.442177800809 P559 + 195.442194343759 P560
      + 320.396355271968 P561 + 320.396371814919 P562 + 135.370250427835 P563
      + 135.370266970786 P564 + 249.511763076632 P565 + 236.906550564722 P566
      + 250.569114047444 P567 + 237.963666577921 P568 + 196.675380805738 P569
      + 198.989668505329 P570 + 295.625393404012 P571 + 140.57302533079 P572
      + 254.846178209467 P573 + 148.377880250356 P574 + 248.703131926724 P575
      + 249.760482897536 P576 + 252.00541607887 P577 + 253.062767049681 P578
      + 213.969557000736 P579 + 214.206267399041 P580 + 215.026907971547 P581
      + 215.263618369853 P582 + 285.699448906402 P583 + 310.72425891816 P584
      + 214.972922643719 P585 + 155.922145976284 P586 + 286.756799877214 P587
      + 216.03027361453 P588 + 156.979496947096 P589 + 307.223301730769 P590
      + 305.879264565058 P591 + 235.910740446486 P592 + 309.844798628426 P593
      + 175.851706503593 P594 + 236.850123080121 P595 + 290.12485938227 P596
      + 292.170006402296 P597 + 279.564558932773 P598 + 238.27627316059 P599
      + 292.141243974767 P600 + 290.797206809055 P601 + 216.876045332196 P602
      + 220.959309500129 P603 + 258.992443463277 P604 + 272.286334264385 P605
      + 158.265885229499 P606 + 270.942297098674 P607 + 156.921848063787 P608
      + 160.887382127156 P609 + 211.920394846457 P610 + 217.920264640315 P611
      + 221.885798703683 P612 + 198.933409520384 P613 + 272.918811422984 P614
      + 272.539038108176 P615 + 271.195000942464 P616 + 275.160535005833 P617
      + 200.437948847986 P618 + 273.24014796249 P619 + 277.205682025859 P620
      + 261.436365424514 P621 + 260.634700492967 P622 + 264.600234556335 P623
      + 223.311948784153 P624 + 185.10453918826 P625 + 105.903275077504 P626
      + 166.901691654032 P627 + 167.518717914165 P628 + 166.174680748454 P629
      + 170.140214811822 P630 + 221.173227531123 P631 + 208.18624220505 P632
      + 220.176427956181 P633 + 209.690781532653 P634
Subject To
 c1:  P315 + P320 + P321 + P322 + P323 + P328 + P329 + P330 + P337 + P338
      + P339 + P340 + P341 + P342 + P343 + P344 + P345 + P349 + P350 + P351
      + P354 + P355 + P356 + P357 + P358 + P359 + P366 + P367 + P368 + P369
      + P370 + P373 + P374 + P384 + P385 + P386 + P387 + P388 + P389 + P395
      + P396 + P398 + P399 + P400 + P401 + P402 + P403 + P404 + P405 + P414
      + P415 + P416 + P417 + P418 + P419 + P420 + P421 + P424 + P439 + P440
      + P442 + P451 + P452 + P456 + P459 + P460 + P461 + P469 + P471 + P472
      + P476 + P477 + P478 + P486 + P487 + P488 + P490 + P491 + P493 + P495
      + P498 + P499 + P500 + P501 + P506 + P508 + P509 + P511 + P515 + P521
      + P525 + P526 + P530 + P531 + P532 + P533 + P542 + P543 + P545 + P547
      + P573 + P596 + P615 + P616 + P617 + P633  = 1
 c1:  P317 + P320 + P321 + P322 + P323 + P324 + P325 + P326 + P327 + P337
      + P338 + P339 + P340 + P341 + P342 + P343 + P344 + P345 + P346 + P347
      + P348 + P349 + P350 + P351 + P352 + P353 + P354 + P355 + P356 + P357
      + P358 + P359 + P360 + P361 + P362 + P363 + P364 + P365 + P371 + P372
      + P378 + P381 + P395 + P396 + P398 + P399 + P400 + P401 + P402 + P403
      + P404 + P405 + P406 + P407 + P408 + P409 + P410 + P411 + P412 + P413
      + P521 + P549 + P550 + P551 + P552 + P573 + P575 + P576 + P577 + P578
      + P579 + P580 + P581 + P582 + P583 + P584 + P585 + P586 + P587 + P588
      + P589 + P596 + P615 + P616 + P617 + P633  = 1
 c2:  P318 + P320 + P321 + P322 + P323 + P324 + P325 + P326 + P327 + P328
      + P329 + P330 + P331 + P332 + P333 + P334 + P335 + P336 + P337 + P338
      + P339 + P340 + P341 + P342 + P343 + P344 + P345 + P346 + P347 + P348
      + P352 + P353 + P360 + P361 + P362 + P366 + P367 + P368 + P369 + P370
      + P373 + P374 + P375 + P376 + P377 + P379 + P380 + P382 + P383 + P424
      + P425 + P426 + P427 + P428 + P429 + P445 + P446 + P449 + P458 + P459
      + P460 + P461 + P462 + P463 + P464 + P465 + P466 + P467 + P468 + P469
      + P476 + P483 + P487 + P489 + P499 + P503 + P510 + P535 + P555 + P556
      + P569 + P583 + P585 + P587 + P588 + P591 + P599 + P601 + P602 + P607
      + P608 + P611 + P616 + P619 + P622 + P624 + P629  = 1
 c3:  P317 + P424 + P425 + P426 + P427 + P428 + P429 + P430 + P431 + P432
      + P433 + P434 + P435 + P436 + P437 + P438 + P439 + P440 + P441 + P442
      + P443 + P444 + P517 + P518 + P519 + P520 + P521 + P522 + P523 + P524
      + P525 + P526 + P527 + P528 + P549 + P550 + P551 + P552 + P561 + P562
      + P565 + P567 + P575 + P576 + P577 + P578 + P579 + P580 + P581 + P582
      + P583 + P584 + P585 + P586 + P587 + P588 + P589 + P597 + P605 + P607
      + P610 + P614 + P619 + P620 + P631  = 1
 c4:  P316 + P324 + P328 + P331 + P332 + P333 + P334 + P337 + P338 + P339
      + P340 + P346 + P347 + P348 + P349 + P350 + P351 + P352 + P353 + P354
      + P363 + P364 + P365 + P366 + P367 + P368 + P369 + P371 + P372 + P375
      + P376 + P377 + P379 + P384 + P385 + P386 + P387 + P390 + P391 + P392
      + P393 + P395 + P396 + P398 + P399 + P400 + P402 + P406 + P407 + P408
      + P409 + P410 + P414 + P415 + P416 + P418 + P422 + P423 + P430 + P432
      + P433 + P436 + P438 + P458 + P462 + P463 + P467 + P468 + P470 + P471
      + P472 + P473 + P474 + P475 + P481 + P482 + P484 + P485 + P490 + P491
      + P493 + P494 + P497 + P506 + P507 + P514 + P522 + P523 + P529 + P536
      + P537 + P540 + P541 + P554 + P566 + P568 + P575 + P576 + P577 + P578
      + P598 + P604 + P613 + P618 + P621 + P622 + P623 + P632 + P634  = 1
 c5:  P318 + P424 + P425 + P426 + P427 + P428 + P429 + P430 + P431 + P432
      + P433 + P434 + P435 + P436 + P437 + P438 + P439 + P440 + P441 + P442
      + P443 + P444 + P445 + P446 + P447 + P448 + P449 + P450 + P451 + P452
      + P453 + P454 + P455 + P456 + P457 + P458 + P459 + P460 + P461 + P462
      + P463 + P464 + P465 + P466 + P467 + P468 + P469 + P470 + P471 + P472
      + P473 + P474 + P475 + P476 + P477 + P478 + P479 + P480 + P481 + P482
      + P483 + P484 + P485 + P486 + P487 + P488 + P489 + P490 + P491 + P492
      + P493 + P494 + P495 + P496 + P497 + P498 + P499 + P500 + P501 + P502
      + P503 + P504 + P505 + P506 + P507 + P508 + P509 + P510 + P511 + P512
      + P513 + P514 + P515 + P516 + P555 + P556 + P561 + P562 + P583 + P587
      + P590 + P591 + P600 + P601 + P602 + P604 + P605 + P606 + P607 + P608
      + P610 + P611 + P613 + P614 + P615 + P616 + P618 + P619 + P621 + P622
      + P626 + P627 + P628 + P629 + P631 + P632 + P633 + P634  = 1
 c6:  P318 + P549 + P550 + P551 + P552 + P553 + P554 + P555 + P556 + P557
      + P558 + P559 + P560 + P561 + P562 + P563 + P564 + P565 + P566 + P567
      + P568 + P569 + P570 + P571 + P572 + P573 + P574 + P593 + P600 + P601
      + P603 + P609 + P612 + P617 + P620 + P623 + P624 + P630  = 1
 c7:  P318 + P590 + P591 + P592 + P593 + P594 + P595 + P596 + P597 + P598
      + P599 + P600 + P601 + P602 + P603 + P604 + P605 + P606 + P607 + P608
      + P609 + P610 + P611 + P612 + P613 + P614 + P615 + P616 + P617 + P618
      + P619 + P620 + P621 + P622 + P623 + P624 + P625 + P626 + P627 + P628
      + P629 + P630 + P631 + P632 + P633 + P634  = 1
 c8:  P319 + P320 + P321 + P322 + P323 + P324 + P325 + P326 + P327 + P328
      + P329 + P330 + P331 + P332 + P333 + P334 + P335 + P336 + P349 + P350
      + P351 + P354 + P355 + P356 + P357 + P358 + P359 + P363 + P364 + P365
      + P371 + P372 + P378 + P381 + P384 + P385 + P386 + P387 + P388 + P389
      + P390 + P391 + P392 + P393 + P394 + P397 + P427 + P431 + P437 + P447
      + P448 + P450 + P455 + P459 + P464 + P470 + P473 + P477 + P478 + P479
      + P480 + P481 + P482 + P483 + P486 + P488 + P495 + P496 + P498 + P502
      + P513 + P522 + P525 + P527 + P530 + P532 + P534 + P544 + P553 + P559
      + P560 + P570 + P579 + P580 + P581 + P582 + P590 + P592 + P595 + P600
      + P602 + P603 + P604 + P605 + P606 + P611 + P612 + P614 + P615 + P621
      + P627 + P628  = 1
 c9:  P319 + P445 + P446 + P447 + P448 + P449 + P450 + P451 + P452 + P453
      + P454 + P455 + P456 + P457 + P492 + P517 + P518 + P519 + P520 + P529
      + P530 + P531 + P532 + P533 + P534 + P535 + P536 + P537 + P538 + P539
      + P540 + P541 + P542 + P543 + P544 + P545 + P546 + P547 + P548 + P557
      + P558 + P571 + P584 + P590 + P591 + P592 + P593 + P594 + P595 + P596
      + P597 + P598 + P599 + P625  = 1
 c10: P315 + P316 + P317 + P318 + P319 + P320 + P321 + P322 + P323 + P324
      + P325 + P326 + P327 + P328 + P329 + P330 + P331 + P332 + P333 + P334
      + P335 + P336 + P337 + P338 + P339 + P340 + P341 + P342 + P343 + P344
      + P345 + P346 + P347 + P348 + P349 + P350 + P351 + P352 + P353 + P354
      + P355 + P356 + P357 + P358 + P359 + P360 + P361 + P362 + P363 + P364
      + P365 + P366 + P367 + P368 + P369 + P370 + P371 + P372 + P373 + P374
      + P375 + P376 + P377 + P378 + P379 + P380 + P381 + P382 + P383 + P384
      + P385 + P386 + P387 + P388 + P389 + P390 + P391 + P392 + P393 + P394
      + P395 + P396 + P397 + P398 + P399 + P400 + P401 + P402 + P403 + P404
      + P405 + P406 + P407 + P408 + P409 + P410 + P411 + P412 + P413 + P414
      + P415 + P416 + P417 + P418 + P419 + P420 + P421 + P422 + P423 + P424
      + P425 + P426 + P427 + P428 + P429 + P430 + P431 + P432 + P433 + P434
      + P435 + P436 + P437 + P438 + P439 + P440 + P441 + P442 + P443 + P444
      + P445 + P446 + P447 + P448 + P449 + P450 + P451 + P452 + P453 + P454
      + P455 + P456 + P457 + P458 + P459 + P460 + P461 + P462 + P463 + P464
      + P465 + P466 + P467 + P468 + P469 + P470 + P471 + P472 + P473 + P474
      + P475 + P476 + P477 + P478 + P479 + P480 + P481 + P482 + P483 + P484
      + P485 + P486 + P487 + P488 + P489 + P490 + P491 + P492 + P493 + P494
      + P495 + P496 + P497 + P498 + P499 + P500 + P501 + P502 + P503 + P504
      + P505 + P506 + P507 + P508 + P509 + P510 + P511 + P512 + P513 + P514
      + P515 + P516 + P517 + P518 + P519 + P520 + P521 + P522 + P523 + P524
      + P525 + P526 + P527 + P528 + P529 + P530 + P531 + P532 + P533 + P534
      + P535 + P536 + P537 + P538 + P539 + P540 + P541 + P542 + P543 + P544
      + P545 + P546 + P547 + P548 + P549 + P550 + P551 + P552 + P553 + P554
      + P555 + P556 + P557 + P558 + P559 + P560 + P561 + P562 + P563 + P564
      + P565 + P566 + P567 + P568 + P569 + P570 + P571 + P572 + P573 + P574
      + P575 + P576 + P577 + P578 + P579 + P580 + P581 + P582 + P583 + P584
      + P585 + P586 + P587 + P588 + P589 + P590 + P591 + P592 + P593 + P594
      + P595 + P596 + P597 + P598 + P599 + P600 + P601 + P602 + P603 + P604
      + P605 + P606 + P607 + P608 + P609 + P610 + P611 + P612 + P613 + P614
      + P615 + P616 + P617 + P618 + P619 + P620 + P621 + P622 + P623 + P624
      + P625 + P626 + P627 + P628 + P629 + P630 + P631 + P632 + P633 + P634
      <= 5
Bounds
 0 <= P315 <= 1
 0 <= P316 <= 1
 0 <= P317 <= 1
 0 <= P318 <= 1
 0 <= P319 <= 1
 0 <= P320 <= 1
 0 <= P321 <= 1
 0 <= P322 <= 1
 0 <= P323 <= 1
 0 <= P324 <= 1
 0 <= P325 <= 1
 0 <= P326 <= 1
 0 <= P327 <= 1
 0 <= P328 <= 1
 0 <= P329 <= 1
 0 <= P330 <= 1
 0 <= P331 <= 1
 0 <= P332 <= 1
 0 <= P333 <= 1
 0 <= P334 <= 1
 0 <= P335 <= 1
 0 <= P336 <= 1
 0 <= P337 <= 1
 0 <= P338 <= 1
 0 <= P339 <= 1
 0 <= P340 <= 1
 0 <= P341 <= 1
 0 <= P342 <= 1
 0 <= P343 <= 1
 0 <= P344 <= 1
 0 <= P345 <= 1
 0 <= P346 <= 1
 0 <= P347 <= 1
 0 <= P348 <= 1
 0 <= P349 <= 1
 0 <= P350 <= 1
 0 <= P351 <= 1
 0 <= P352 <= 1
 0 <= P353 <= 1
 0 <= P354 <= 1
 0 <= P355 <= 1
 0 <= P356 <= 1
 0 <= P357 <= 1
 0 <= P358 <= 1
 0 <= P359 <= 1
 0 <= P360 <= 1
 0 <= P361 <= 1
 0 <= P362 <= 1
 0 <= P363 <= 1
 0 <= P364 <= 1
 0 <= P365 <= 1
 0 <= P366 <= 1
 0 <= P367 <= 1
 0 <= P368 <= 1
 0 <= P369 <= 1
 0 <= P370 <= 1
 0 <= P371 <= 1
 0 <= P372 <= 1
 0 <= P373 <= 1
 0 <= P374 <= 1
 0 <= P375 <= 1
 0 <= P376 <= 1
 0 <= P377 <= 1
 0 <= P378 <= 1
 0 <= P379 <= 1
 0 <= P380 <= 1
 0 <= P381 <= 1
 0 <= P382 <= 1
 0 <= P383 <= 1
 0 <= P384 <= 1
 0 <= P385 <= 1
 0 <= P386 <= 1
 0 <= P387 <= 1
 0 <= P388 <= 1
 0 <= P389 <= 1
 0 <= P390 <= 1
 0 <= P391 <= 1
 0 <= P392 <= 1
 0 <= P393 <= 1
 0 <= P394 <= 1
 0 <= P395 <= 1
 0 <= P396 <= 1
 0 <= P397 <= 1
 0 <= P398 <= 1
 0 <= P399 <= 1
 0 <= P400 <= 1
 0 <= P401 <= 1
 0 <= P402 <= 1
 0 <= P403 <= 1
 0 <= P404 <= 1
 0 <= P405 <= 1
 0 <= P406 <= 1
 0 <= P407 <= 1
 0 <= P408 <= 1
 0 <= P409 <= 1
 0 <= P410 <= 1
 0 <= P411 <= 1
 0 <= P412 <= 1
 0 <= P413 <= 1
 0 <= P414 <= 1
 0 <= P415 <= 1
 0 <= P416 <= 1
 0 <= P417 <= 1
 0 <= P418 <= 1
 0 <= P419 <= 1
 0 <= P420 <= 1
 0 <= P421 <= 1
 0 <= P422 <= 1
 0 <= P423 <= 1
 0 <= P424 <= 1
 0 <= P425 <= 1
 0 <= P426 <= 1
 0 <= P427 <= 1
 0 <= P428 <= 1
 0 <= P429 <= 1
 0 <= P430 <= 1
 0 <= P431 <= 1
 0 <= P432 <= 1
 0 <= P433 <= 1
 0 <= P434 <= 1
 0 <= P435 <= 1
 0 <= P436 <= 1
 0 <= P437 <= 1
 0 <= P438 <= 1
 0 <= P439 <= 1
 0 <= P440 <= 1
 0 <= P441 <= 1
 0 <= P442 <= 1
 0 <= P443 <= 1
 0 <= P444 <= 1
 0 <= P445 <= 1
 0 <= P446 <= 1
 0 <= P447 <= 1
 0 <= P448 <= 1
 0 <= P449 <= 1
 0 <= P450 <= 1
 0 <= P451 <= 1
 0 <= P452 <= 1
 0 <= P453 <= 1
 0 <= P454 <= 1
 0 <= P455 <= 1
 0 <= P456 <= 1
 0 <= P457 <= 1
 0 <= P458 <= 1
 0 <= P459 <= 1
 0 <= P460 <= 1
 0 <= P461 <= 1
 0 <= P462 <= 1
 0 <= P463 <= 1
 0 <= P464 <= 1
 0 <= P465 <= 1
 0 <= P466 <= 1
 0 <= P467 <= 1
 0 <= P468 <= 1
 0 <= P469 <= 1
 0 <= P470 <= 1
 0 <= P471 <= 1
 0 <= P472 <= 1
 0 <= P473 <= 1
 0 <= P474 <= 1
 0 <= P475 <= 1
 0 <= P476 <= 1
 0 <= P477 <= 1
 0 <= P478 <= 1
 0 <= P479 <= 1
 0 <= P480 <= 1
 0 <= P481 <= 1
 0 <= P482 <= 1
 0 <= P483 <= 1
 0 <= P484 <= 1
 0 <= P485 <= 1
 0 <= P486 <= 1
 0 <= P487 <= 1
 0 <= P488 <= 1
 0 <= P489 <= 1
 0 <= P490 <= 1
 0 <= P491 <= 1
 0 <= P492 <= 1
 0 <= P493 <= 1
 0 <= P494 <= 1
 0 <= P495 <= 1
 0 <= P496 <= 1
 0 <= P497 <= 1
 0 <= P498 <= 1
 0 <= P499 <= 1
 0 <= P500 <= 1
 0 <= P501 <= 1
 0 <= P502 <= 1
 0 <= P503 <= 1
 0 <= P504 <= 1
 0 <= P505 <= 1
 0 <= P506 <= 1
 0 <= P507 <= 1
 0 <= P508 <= 1
 0 <= P509 <= 1
 0 <= P510 <= 1
 0 <= P511 <= 1
 0 <= P512 <= 1
 0 <= P513 <= 1
 0 <= P514 <= 1
 0 <= P515 <= 1
 0 <= P516 <= 1
 0 <= P517 <= 1
 0 <= P518 <= 1
 0 <= P519 <= 1
 0 <= P520 <= 1
 0 <= P521 <= 1
 0 <= P522 <= 1
 0 <= P523 <= 1
 0 <= P524 <= 1
 0 <= P525 <= 1
 0 <= P526 <= 1
 0 <= P527 <= 1
 0 <= P528 <= 1
 0 <= P529 <= 1
 0 <= P530 <= 1
 0 <= P531 <= 1
 0 <= P532 <= 1
 0 <= P533 <= 1
 0 <= P534 <= 1
 0 <= P535 <= 1
 0 <= P536 <= 1
 0 <= P537 <= 1
 0 <= P538 <= 1
 0 <= P539 <= 1
 0 <= P540 <= 1
 0 <= P541 <= 1
 0 <= P542 <= 1
 0 <= P543 <= 1
 0 <= P544 <= 1
 0 <= P545 <= 1
 0 <= P546 <= 1
 0 <= P547 <= 1
 0 <= P548 <= 1
 0 <= P549 <= 1
 0 <= P550 <= 1
 0 <= P551 <= 1
 0 <= P552 <= 1
 0 <= P553 <= 1
 0 <= P554 <= 1
 0 <= P555 <= 1
 0 <= P556 <= 1
 0 <= P557 <= 1
 0 <= P558 <= 1
 0 <= P559 <= 1
 0 <= P560 <= 1
 0 <= P561 <= 1
 0 <= P562 <= 1
 0 <= P563 <= 1
 0 <= P564 <= 1
 0 <= P565 <= 1
 0 <= P566 <= 1
 0 <= P567 <= 1
 0 <= P568 <= 1
 0 <= P569 <= 1
 0 <= P570 <= 1
 0 <= P571 <= 1
 0 <= P572 <= 1
 0 <= P573 <= 1
 0 <= P574 <= 1
 0 <= P575 <= 1
 0 <= P576 <= 1
 0 <= P577 <= 1
 0 <= P578 <= 1
 0 <= P579 <= 1
 0 <= P580 <= 1
 0 <= P581 <= 1
 0 <= P582 <= 1
 0 <= P583 <= 1
 0 <= P584 <= 1
 0 <= P585 <= 1
 0 <= P586 <= 1
 0 <= P587 <= 1
 0 <= P588 <= 1
 0 <= P589 <= 1
 0 <= P590 <= 1
 0 <= P591 <= 1
 0 <= P592 <= 1
 0 <= P593 <= 1
 0 <= P594 <= 1
 0 <= P595 <= 1
 0 <= P596 <= 1
 0 <= P597 <= 1
 0 <= P598 <= 1
 0 <= P599 <= 1
 0 <= P600 <= 1
 0 <= P601 <= 1
 0 <= P602 <= 1
 0 <= P603 <= 1
 0 <= P604 <= 1
 0 <= P605 <= 1
 0 <= P606 <= 1
 0 <= P607 <= 1
 0 <= P608 <= 1
 0 <= P609 <= 1
 0 <= P610 <= 1
 0 <= P611 <= 1
 0 <= P612 <= 1
 0 <= P613 <= 1
 0 <= P614 <= 1
 0 <= P615 <= 1
 0 <= P616 <= 1
 0 <= P617 <= 1
 0 <= P618 <= 1
 0 <= P619 <= 1
 0 <= P620 <= 1
 0 <= P621 <= 1
 0 <= P622 <= 1
 0 <= P623 <= 1
 0 <= P624 <= 1
 0 <= P625 <= 1
 0 <= P626 <= 1
 0 <= P627 <= 1
 0 <= P628 <= 1
 0 <= P629 <= 1
 0 <= P630 <= 1
 0 <= P631 <= 1
 0 <= P632 <= 1
 0 <= P633 <= 1
 0 <= P634 <= 1
Generals
 P315  P316  P317  P318  P319  P320  P321  P322  P323  P324  P325  P326  P327 
 P328  P329  P330  P331  P332  P333  P334  P335  P336  P337  P338  P339  P340 
 P341  P342  P343  P344  P345  P346  P347  P348  P349  P350  P351  P352  P353 
 P354  P355  P356  P357  P358  P359  P360  P361  P362  P363  P364  P365  P366 
 P367  P368  P369  P370  P371  P372  P373  P374  P375  P376  P377  P378  P379 
 P380  P381  P382  P383  P384  P385  P386  P387  P388  P389  P390  P391  P392 
 P393  P394  P395  P396  P397  P398  P399  P400  P401  P402  P403  P404  P405 
 P406  P407  P408  P409  P410  P411  P412  P413  P414  P415  P416  P417  P418 
 P419  P420  P421  P422  P423  P424  P425  P426  P427  P428  P429  P430  P431 
 P432  P433  P434  P435  P436  P437  P438  P439  P440  P441  P442  P443  P444 
 P445  P446  P447  P448  P449  P450  P451  P452  P453  P454  P455  P456  P457 
 P458  P459  P460  P461  P462  P463  P464  P465  P466  P467  P468  P469  P470 
 P471  P472  P473  P474  P475  P476  P477  P478  P479  P480  P481  P482  P483 
 P484  P485  P486  P487  P488  P489  P490  P491  P492  P493  P494  P495  P496 
 P497  P498  P499  P500  P501  P502  P503  P504  P505  P506  P507  P508  P509 
 P510  P511  P512  P513  P514  P515  P516  P517  P518  P519  P520  P521  P522 
 P523  P524  P525  P526  P527  P528  P529  P530  P531  P532  P533  P534  P535 
 P536  P537  P538  P539  P540  P541  P542  P543  P544  P545  P546  P547  P548 
 P549  P550  P551  P552  P553  P554  P555  P556  P557  P558  P559  P560  P561 
 P562  P563  P564  P565  P566  P567  P568  P569  P570  P571  P572  P573  P574 
 P575  P576  P577  P578  P579  P580  P581  P582  P583  P584  P585  P586  P587 
 P588  P589  P590  P591  P592  P593  P594  P595  P596  P597  P598  P599  P600 
 P601  P602  P603  P604  P605  P606  P607  P608  P609  P610  P611  P612  P613 
 P614  P615  P616  P617  P618  P619  P620  P621  P622  P623  P624  P625  P626 
 P627  P628  P629  P630  P631  P632  P633  P634 
End
